benchmarks/bfuzz0/343620469566217676785026016656231643.smt2
(set-logic QF_FP)
(declare-const x0 (_ FloatingPoint 8 24))
(declare-const x1 (_ FloatingPoint 8 24))
(declare-const x2 (_ FloatingPoint 8 24))
(declare-const x3 (_ FloatingPoint 8 24))
(declare-const x4 (_ FloatingPoint 8 24))
(declare-const x5 (_ FloatingPoint 8 24))
(declare-const x6 (_ FloatingPoint 8 24))
(declare-const x7 (_ FloatingPoint 8 24))
(declare-const x8 (_ FloatingPoint 8 24))
(declare-const x9 (_ FloatingPoint 8 24))
(declare-const x10 (_ FloatingPoint 8 24))
(declare-const x11 (_ FloatingPoint 8 24))
(assert (fp.gt (fp.add RNE (fp.neg (fp.sub RNE x11 x3)) (fp.mul RNE (fp.add RNE x10 x6) (fp.div RNE x7 x4))) (fp.neg (fp.sub RNE (fp.neg x3) (fp.div RNE x5 x10)))))
(check-sat)
