db/data/343620469566217676785026016656231643.z3.out
sat
-------------------
7.765747523
